\* Problem: Unknown *\

Maximize
 obj: + xp_0_0 + xp_1_0 + xp_1_1 + xp_2_0 + xp_3_0 + xp_4_0 + xp_5_0
 + xp_6_0 + xp_7_0 + xp_8_0 + xp_9_0 + xp_9_1 + xp_10_0 + xp_11_0
 + xp_11_1 + xp_12_0 + xp_12_1 + xp_13_0 + xp_14_0 + xp_14_1 + xp_15_0
 + xp_16_0 + xp_17_0 + xp_17_1 + xp_18_0 + xp_18_1 + xp_19_0 + xp_19_1
 + xp_20_0 + xp_21_0 + xp_22_0 + xp_22_1 + xp_23_0 + xp_24_0 + xp_24_1
 + xp_25_0 + xp_26_0 + xp_27_0 + xp_28_0 + xp_28_1 + xp_29_0 + xp_30_0
 + xp_31_0 + xp_32_0 + xp_33_0 + xp_34_0 + xp_34_1 + xp_35_0 + xp_36_0
 + xp_37_0 + xp_38_0 + xp_39_0 + xp_40_0 + xp_41_0 + xp_42_0 + xp_42_1
 + xp_42_2 + xp_43_0 + xp_44_0 + xp_45_0 + xp_46_0 + xp_47_0 + xp_48_0
 + xp_49_0 + xp_50_0 + xp_50_1 + xp_51_0 + xp_52_0 + xp_53_0 + xp_54_0
 + xp_55_0 + xp_56_0 + xp_57_0 + xp_58_0 + xp_58_1 + xp_59_0 + xp_60_0
 + xp_60_1 + xp_61_0 + xp_61_1 + xp_62_0 + xp_63_0 + xp_63_1 + xp_64_0
 + xp_65_0 + xp_65_1 + xp_66_0 + xp_67_0 + xp_68_0 + xp_68_1 + xp_68_2
 + xp_69_0 + xp_70_0 + xp_71_0 + xp_72_0 + xp_73_0 + xp_74_0 + xp_75_0
 + xp_76_0 + xp_77_0 + xp_78_0 + xp_78_1 + xp_78_2 + xp_79_0 + xp_79_1
 + xp_79_2 + xp_80_0 + xp_80_1 + xp_81_0 + xp_82_0 + xp_83_0 + xp_84_0
 + xp_85_0 + xp_85_1 + xp_86_0 + xp_86_1 + xp_87_0 + xp_88_0 + xp_89_0
 + xp_90_0 + xp_90_1 + xp_91_0 + xp_91_1 + xp_91_2 + xp_92_0 + xp_93_0
 + xp_94_0 + xp_95_0 + xp_96_0 + xp_97_0 + xp_98_0 + xp_99_0 + xp_100_0
 + xp_101_0 + xp_102_0 + xp_103_0 + xp_104_0 + xp_105_0 + xp_106_0
 + xp_107_0 + xp_108_0 + xp_108_1 + xp_108_2 + xp_109_0 + xp_109_1
 + xp_110_0 + xp_111_0 + xp_112_0 + xp_113_0 + xp_114_0 + xp_115_0
 + xp_116_0 + xp_116_1 + xp_117_0 + xp_118_0 + xp_119_0 + xp_120_0
 + xp_120_1 + xp_121_0 + xp_122_0 + xp_123_0 + xp_124_0 + xp_125_0
 + xp_125_1 + xp_126_0 + xp_126_1 + xp_126_2 + xp_126_3 + xp_127_0
 + xp_127_1 + xp_128_0 + xp_128_1 + xp_129_0 + xp_129_1 + xp_130_0
 + xp_131_0 + xp_131_1 + xp_131_2

Subject To
 r_1: + xp_128_1 + xp_122_0 + xp_121_0 + xp_108_2 + xp_107_0 + xp_78_2
 + xp_25_0 + xp_22_1 + xp_18_0 + xp_16_0 + xp_4_0 <= 39648.3971044467
 r_2: + xp_131_2 + xp_131_1 + xp_127_1 + xp_126_1 + xp_120_0 + xp_93_0
 + xp_90_1 + xp_85_1 + xp_85_0 + xp_75_0 + xp_71_0 + xp_66_0 + xp_65_1
 + xp_65_0 + xp_61_1 + xp_55_0 + xp_52_0 + xp_48_0 + xp_42_2 + xp_42_1
 + xp_32_0 + xp_28_1 + xp_28_0 + xp_24_0 + xp_19_1 + xp_19_0 + xp_12_1
 + xp_1_1 <= 35837.0814592704
 r_3: + xp_114_0 + xp_95_0 + xp_91_1 + xp_79_1 + xp_76_0 + xp_34_0
 <= 40000
 r_4: + xp_117_0 + xp_91_2 + xp_91_0 + xp_84_0 + xp_79_2 + xp_79_0
 + xp_46_0 + xp_43_0 + xp_40_0 + xp_34_1 <= 38762.5113739763
 r_5: + xp_130_0 + xp_99_0 + xp_86_0 + xp_65_1 + xp_7_0 + xp_2_0
 <= 40000
 r_6: + xp_126_2 + xp_119_0 + xp_114_0 + xp_95_0 + xp_91_1 + xp_83_0
 + xp_81_0 + xp_79_1 + xp_70_0 + xp_68_1 + xp_58_1 + xp_53_0 + xp_45_0
 + xp_34_0 + xp_18_0 <= 40000
 r_7: + xp_104_0 + xp_88_0 + xp_82_0 + xp_78_1 + xp_50_1 + xp_44_0
 + xp_27_0 + xp_18_1 <= 38762.5113739763
 r_8: + xp_131_2 + xp_131_1 + xp_127_1 + xp_126_1 + xp_120_0 + xp_118_0
 + xp_103_0 + xp_90_1 + xp_71_0 + xp_61_1 + xp_55_0 + xp_42_2 + xp_42_1
 + xp_32_0 + xp_24_0 + xp_12_1 + xp_1_1 <= 39648.3971044467
 r_9: + xp_131_0 + xp_127_0 + xp_122_0 + xp_120_1 + xp_108_2 + xp_78_2
 + xp_77_0 + xp_42_0 + xp_33_0 + xp_24_1 <= 40000
 r_10: + xp_106_0 + xp_99_0 + xp_98_0 + xp_88_0 + xp_86_0 + xp_85_0
 + xp_78_1 + xp_65_1 + xp_50_1 + xp_26_0 + xp_24_0 + xp_8_0 + xp_7_0
 + xp_2_0 <= 40000
 r_11: + xp_119_0 + xp_112_0 + xp_111_0 + xp_95_0 + xp_91_1 + xp_81_0
 + xp_79_1 + xp_78_2 + xp_78_0 + xp_59_0 + xp_53_0 + xp_50_0 + xp_49_0
 + xp_45_0 + xp_34_0 + xp_18_0 + xp_4_0 + xp_3_0 <= 37043.4782608696
 r_12: + xp_129_0 + xp_128_0 + xp_123_0 + xp_117_0 + xp_108_1 + xp_101_0
 + xp_91_2 + xp_82_0 + xp_80_1 + xp_79_2 + xp_78_1 + xp_78_0 + xp_73_0
 + xp_63_1 + xp_60_0 + xp_50_1 + xp_46_0 + xp_44_0 + xp_40_0 + xp_18_1
 + xp_17_1 + xp_15_0 + xp_14_1 + xp_13_0 + xp_9_0 <= 37043.4782608696
 r_13: + xp_129_1 + xp_128_1 + xp_126_3 + xp_120_1 + xp_109_1 + xp_100_0
 + xp_91_0 + xp_90_0 + xp_80_0 + xp_79_0 + xp_68_0 + xp_63_0 + xp_60_1
 + xp_34_1 + xp_31_0 + xp_30_0 + xp_17_0 + xp_9_1 <= 37043.4782608696
 r_14: + xp_131_2 + xp_131_1 + xp_131_0 + xp_126_2 + xp_125_1 + xp_125_0
 + xp_124_0 + xp_115_0 + xp_94_0 + xp_86_1 + xp_85_1 + xp_77_0 + xp_68_1
 + xp_65_0 + xp_58_1 + xp_56_0 + xp_51_0 + xp_41_0 + xp_38_0 + xp_35_0
 + xp_24_1 + xp_20_0 + xp_19_1 + xp_19_0 + xp_12_1 + xp_12_0 + xp_0_0
 <= 38762.5113739763
 r_15: + xp_131_2 + xp_131_0 + xp_126_3 + xp_126_2 + xp_125_0 + xp_124_0
 + xp_120_1 + xp_116_0 + xp_115_0 + xp_109_1 + xp_94_0 + xp_90_0
 + xp_89_0 + xp_86_1 + xp_85_1 + xp_77_0 + xp_68_1 + xp_68_0 + xp_65_0
 + xp_58_1 + xp_51_0 + xp_42_2 + xp_42_0 + xp_38_0 + xp_36_0 + xp_28_1
 + xp_24_1 + xp_19_1 + xp_12_0 + xp_11_0 + xp_0_0 <= 37043.4782608696
 r_16: + xp_128_0 + xp_123_0 + xp_108_1 + xp_108_0 + xp_78_1 + xp_78_0
 + xp_73_0 + xp_67_0 + xp_57_0 + xp_46_0 + xp_44_0 + xp_40_0 + xp_22_0
 + xp_18_1 + xp_13_0 + xp_6_0 <= 37043.4782608696
 r_17: + xp_129_0 + xp_126_0 + xp_109_0 + xp_97_0 + xp_91_2 + xp_80_1
 + xp_79_2 + xp_68_2 + xp_63_1 + xp_62_0 + xp_61_0 + xp_60_0 + xp_47_0
 + xp_22_1 + xp_17_1 + xp_9_0 + xp_1_0 <= 35837.0814592704
 r_18: + xp_126_3 + xp_126_1 + xp_126_0 + xp_106_0 + xp_99_0 + xp_98_0
 + xp_92_0 + xp_86_0 + xp_85_0 + xp_68_2 + xp_68_0 + xp_65_1 + xp_58_0
 + xp_48_0 + xp_32_0 + xp_30_0 + xp_26_0 + xp_24_0 + xp_5_0 + xp_2_0
 <= 37043.4782608696
 r_19: + xp_131_1 + xp_125_1 + xp_116_1 + xp_110_0 + xp_108_1 + xp_78_0
 + xp_56_0 + xp_42_1 + xp_28_0 + xp_19_0 + xp_14_1 + xp_12_1 + xp_11_1
 + xp_3_0 <= 37043.4782608696
 r_20: + xp_129_1 + xp_128_1 + xp_119_0 + xp_112_0 + xp_111_0 + xp_108_2
 + xp_108_0 + xp_107_0 + xp_95_0 + xp_91_1 + xp_91_0 + xp_81_0 + xp_80_0
 + xp_79_1 + xp_79_0 + xp_78_2 + xp_69_0 + xp_64_0 + xp_63_0 + xp_60_1
 + xp_50_0 + xp_49_0 + xp_45_0 + xp_18_0 + xp_17_0 + xp_14_0 + xp_10_0
 + xp_9_1 + xp_4_0 <= 35837.0814592704
 r_21: + xp_113_0 + xp_86_1 + xp_77_0 + xp_65_0 + xp_38_0 + xp_20_0
 + xp_0_0 <= 38762.5113739763
 r_22: + xp_126_2 + xp_124_0 + xp_105_0 + xp_94_0 + xp_85_1 + xp_83_0
 + xp_68_1 + xp_58_1 + xp_41_0 + xp_24_1 <= 38762.5113739763
 r_23: + xp_128_1 + xp_128_0 + xp_117_0 + xp_104_0 + xp_100_0 + xp_91_2
 + xp_91_0 + xp_84_0 + xp_82_0 + xp_80_1 + xp_80_0 + xp_79_2 + xp_79_0
 + xp_78_1 + xp_73_0 + xp_60_1 + xp_60_0 + xp_50_1 + xp_46_0 + xp_44_0
 + xp_40_0 + xp_34_1 + xp_21_0 + xp_18_1 + xp_15_0 + xp_9_1 + xp_9_0
 <= 38762.5113739763
 r_24: + xp_128_0 + xp_126_1 + xp_103_0 + xp_90_1 + xp_61_1 + xp_40_0
 + xp_39_0 + xp_22_0 + xp_18_1 + xp_13_0 + xp_12_1 + xp_1_1 <= 40000
 r_25: + xp_131_0 + xp_127_0 + xp_126_3 + xp_126_2 + xp_126_0 + xp_120_1
 + xp_94_0 + xp_90_0 + xp_89_0 + xp_77_0 + xp_74_0 + xp_61_0 + xp_42_0
 + xp_38_0 + xp_24_1 + xp_12_0 + xp_1_0 <= 37043.4782608696
 r_26: + xp_128_1 + xp_121_0 + xp_112_0 + xp_108_2 + xp_107_0 + xp_81_0
 + xp_79_2 + xp_79_1 + xp_79_0 + xp_78_2 + xp_64_0 + xp_60_1 + xp_60_0
 + xp_47_0 + xp_37_0 + xp_29_0 + xp_25_0 + xp_22_1 + xp_18_0 + xp_17_1
 + xp_17_0 + xp_4_0 <= 35837.0814592704
 r_27: + xp_131_2 + xp_127_1 + xp_125_0 + xp_116_0 + xp_115_0 + xp_108_0
 + xp_86_1 + xp_85_1 + xp_72_0 + xp_67_0 + xp_65_0 + xp_58_1 + xp_57_0
 + xp_52_0 + xp_50_0 + xp_42_2 + xp_28_1 + xp_23_0 + xp_19_1 + xp_14_0
 + xp_11_0 <= 35837.0814592704
 r_28: + xp_131_1 + xp_126_1 + xp_126_0 + xp_125_1 + xp_120_0 + xp_116_1
 + xp_109_0 + xp_99_0 + xp_98_0 + xp_96_0 + xp_92_0 + xp_90_1 + xp_86_0
 + xp_85_0 + xp_75_0 + xp_68_2 + xp_65_1 + xp_58_0 + xp_54_0 + xp_48_0
 + xp_42_1 + xp_32_0 + xp_28_0 + xp_26_0 + xp_24_0 + xp_19_0 + xp_12_1
 + xp_11_1 <= 35837.0814592704
 r_29: + xp_129_1 + xp_129_0 + xp_95_0 + xp_93_0 + xp_87_0 + xp_71_0
 + xp_62_0 + xp_49_0 + xp_45_0 + xp_10_0 + xp_9_1 + xp_9_0 + xp_1_1
 + xp_1_0 <= 35837.0814592704
 r_30: + xp_125_1 + xp_125_0 + xp_121_0 + xp_102_0 + xp_99_0 + xp_96_0
 + xp_92_0 + xp_57_0 + xp_37_0 + xp_26_0 + xp_23_0 + xp_11_1 + xp_11_0
 <= 35837.0814592704

Bounds
 0 <= xp_0_0 <= 225.653101847708
 0 <= xp_1_0 <= 104.758507058908
 0 <= xp_1_1 <= 69.8390047059387
 0 <= xp_2_0 <= 109.990129252584
 0 <= xp_3_0 <= 174.345385394067
 0 <= xp_4_0 <= 754.425132965145
 0 <= xp_5_0 <= 1036.05028912592
 0 <= xp_6_0 <= 1713.63991059599
 0 <= xp_7_0 <= 610.39794365732
 0 <= xp_8_0 <= 1443.80166226916
 0 <= xp_9_0 <= 62.0987251230061
 0 <= xp_9_1 <= 41.3991500820041
 0 <= xp_10_0 <= 52.4422851221489
 0 <= xp_11_0 <= 31.7679227182248
 0 <= xp_11_1 <= 7.94198067955621
 0 <= xp_12_0 <= 1581.48787335188
 0 <= xp_12_1 <= 395.37196833797
 0 <= xp_13_0 <= 240.969778872566
 0 <= xp_14_0 <= 42.0672849645699
 0 <= xp_14_1 <= 168.26913985828
 0 <= xp_15_0 <= 484.965074194488
 0 <= xp_16_0 <= 2525.61288769157
 0 <= xp_17_0 <= 227.266710620697
 0 <= xp_17_1 <= 56.8166776551743
 0 <= xp_18_0 <= 137.333234163627
 0 <= xp_18_1 <= 205.999851245441
 0 <= xp_19_0 <= 607.448065119199
 0 <= xp_19_1 <= 404.965376746133
 0 <= xp_20_0 <= 122.659479384257
 0 <= xp_21_0 <= 262.526583574219
 0 <= xp_22_0 <= 942.700500344783
 0 <= xp_22_1 <= 235.675125086196
 0 <= xp_23_0 <= 49.7319266362686
 0 <= xp_24_0 <= 195.486181583933
 0 <= xp_24_1 <= 130.324121055956
 0 <= xp_25_0 <= 553.606478639223
 0 <= xp_26_0 <= 14.6863610979095
 0 <= xp_27_0 <= 323.226007339399
 0 <= xp_28_0 <= 383.106020399545
 0 <= xp_28_1 <= 255.404013599696
 0 <= xp_29_0 <= 2341.62366861518
 0 <= xp_30_0 <= 175.41692246988
 0 <= xp_31_0 <= 182.350397666318
 0 <= xp_32_0 <= 2153.60042760632
 0 <= xp_33_0 <= 7710.46563958787
 0 <= xp_34_0 <= 293.248181853709
 0 <= xp_34_1 <= 195.498787902472
 0 <= xp_35_0 <= 249.731170257156
 0 <= xp_36_0 <= 305.135940235965
 0 <= xp_37_0 <= 349.068960344304
 0 <= xp_38_0 <= 320.326554075434
 0 <= xp_39_0 <= 1505.32049673938
 0 <= xp_40_0 <= 812.414198244444
 0 <= xp_41_0 <= 76.4573219389022
 0 <= xp_42_0 <= 260.723880023145
 0 <= xp_42_1 <= 86.907960007715
 0 <= xp_42_2 <= 86.907960007715
 0 <= xp_43_0 <= 470.782965838137
 0 <= xp_44_0 <= 438.762916749133
 0 <= xp_45_0 <= 40.7184088808993
 0 <= xp_46_0 <= 1536.14294556718
 0 <= xp_47_0 <= 840.967509735229
 0 <= xp_48_0 <= 2780.89083810587
 0 <= xp_49_0 <= 84.2732394330686
 0 <= xp_50_0 <= 600.363314100293
 0 <= xp_50_1 <= 150.090828525073
 0 <= xp_51_0 <= 678.913284916666
 0 <= xp_52_0 <= 633.782664547124
 0 <= xp_53_0 <= 181.720081739369
 0 <= xp_54_0 <= 3533.99230762443
 0 <= xp_55_0 <= 1134.00138417378
 0 <= xp_56_0 <= 91.6479357783708
 0 <= xp_57_0 <= 197.162821949618
 0 <= xp_58_0 <= 3480.15072114445
 0 <= xp_58_1 <= 870.037680286113
 0 <= xp_59_0 <= 10184.7077792331
 0 <= xp_60_0 <= 259.438035532169
 0 <= xp_60_1 <= 389.157053298254
 0 <= xp_61_0 <= 926.236648332877
 0 <= xp_61_1 <= 1389.35497249932
 0 <= xp_62_0 <= 125.558932648222
 0 <= xp_63_0 <= 100.900973585981
 0 <= xp_63_1 <= 25.2252433964952
 0 <= xp_64_0 <= 951.461891729372
 0 <= xp_65_0 <= 399.872424056385
 0 <= xp_65_1 <= 99.9681060140964
 0 <= xp_66_0 <= 1607.49470849779
 0 <= xp_67_0 <= 387.140042332018
 0 <= xp_68_0 <= 563.905840885569
 0 <= xp_68_1 <= 563.905840885569
 0 <= xp_68_2 <= 281.952920442784
 0 <= xp_69_0 <= 1644.431221817
 0 <= xp_70_0 <= 604.409942351305
 0 <= xp_71_0 <= 67.8219937397022
 0 <= xp_72_0 <= 573.209303967334
 0 <= xp_73_0 <= 883.198676840806
 0 <= xp_74_0 <= 912.130177887761
 0 <= xp_75_0 <= 1687.92302077647
 0 <= xp_76_0 <= 1647.83492782252
 0 <= xp_77_0 <= 547.492414147819
 0 <= xp_78_0 <= 5357.29458319099
 0 <= xp_78_1 <= 16071.883749573
 0 <= xp_78_2 <= 5357.29458319099
 0 <= xp_79_0 <= 611.835063970763
 0 <= xp_79_1 <= 203.945021323588
 0 <= xp_79_2 <= 203.945021323588
 0 <= xp_80_0 <= 172.656138709844
 0 <= xp_80_1 <= 43.164034677461
 0 <= xp_81_0 <= 249.731170257156
 0 <= xp_82_0 <= 210.399456415545
 0 <= xp_83_0 <= 482.317747301302
 0 <= xp_84_0 <= 851.998038456835
 0 <= xp_85_0 <= 312.989676685748
 0 <= xp_85_1 <= 78.2474191714371
 0 <= xp_86_0 <= 98.4805604264969
 0 <= xp_86_1 <= 65.653706950998
 0 <= xp_87_0 <= 135.265797923235
 0 <= xp_88_0 <= 407.121057216298
 0 <= xp_89_0 <= 2126.30774796944
 0 <= xp_90_0 <= 12467.8885551016
 0 <= xp_90_1 <= 8311.92570340106
 0 <= xp_91_0 <= 1563.39780624845
 0 <= xp_91_1 <= 521.132602082816
 0 <= xp_91_2 <= 521.132602082816
 0 <= xp_92_0 <= 64.0400981780088
 0 <= xp_93_0 <= 124.928616721273
 0 <= xp_94_0 <= 227.039796886996
 0 <= xp_95_0 <= 58.745444391638
 0 <= xp_96_0 <= 110.557413586838
 0 <= xp_97_0 <= 505.261247042242
 0 <= xp_98_0 <= 137.030682518692
 0 <= xp_99_0 <= 15.6948665810277
 0 <= xp_100_0 <= 482.128652523218
 0 <= xp_101_0 <= 239.520052240584
 0 <= xp_102_0 <= 71.8560156721752
 0 <= xp_103_0 <= 1380.13975364732
 0 <= xp_104_0 <= 126.44137494595
 0 <= xp_105_0 <= 1389.84661892234
 0 <= xp_106_0 <= 39.709903397781
 0 <= xp_107_0 <= 431.136094033051
 0 <= xp_108_0 <= 488.356173881473
 0 <= xp_108_1 <= 162.785391293824
 0 <= xp_108_2 <= 162.785391293824
 0 <= xp_109_0 <= 556.014285480168
 0 <= xp_109_1 <= 370.676190320112
 0 <= xp_110_0 <= 127.702006799848
 0 <= xp_111_0 <= 2803.89736943951
 0 <= xp_112_0 <= 4487.66030509812
 0 <= xp_113_0 <= 407.814404735942
 0 <= xp_114_0 <= 2298.63612239727
 0 <= xp_115_0 <= 211.786151454832
 0 <= xp_116_0 <= 122.482990924711
 0 <= xp_116_1 <= 30.6207477311778
 0 <= xp_117_0 <= 1862.89872209749
 0 <= xp_118_0 <= 3024.25581750085
 0 <= xp_119_0 <= 60.1951710236204
 0 <= xp_120_0 <= 1663.9331965968
 0 <= xp_120_1 <= 415.983299149199
 0 <= xp_121_0 <= 72.4233000064292
 0 <= xp_122_0 <= 2180.70401246513
 0 <= xp_123_0 <= 492.591896910569
 0 <= xp_124_0 <= 131.988155103101
 0 <= xp_125_0 <= 20.9264887747037
 0 <= xp_125_1 <= 5.23162219367591
 0 <= xp_126_0 <= 4865.9254991787
 0 <= xp_126_1 <= 4865.9254991787
 0 <= xp_126_2 <= 9731.85099835739
 0 <= xp_126_3 <= 4865.9254991787
 0 <= xp_127_0 <= 221.19046508491
 0 <= xp_127_1 <= 331.785697627365
 0 <= xp_128_0 <= 311.476918461071
 0 <= xp_128_1 <= 77.8692296152678
 0 <= xp_129_0 <= 28.1751219346161
 0 <= xp_129_1 <= 18.7834146230774
 0 <= xp_130_0 <= 386.950947553933
 0 <= xp_131_0 <= 294.407963159295
 0 <= xp_131_1 <= 294.407963159295
 0 <= xp_131_2 <= 147.203981579647

End
